DIMENSION :13
NODE_COORD_SECTION
1 44.34147546809248 -60.48700625289176
2 94.4306059352235 -73.23344192118827
3 47.06104201148335 -43.72227542978055
4 3.0332789793870774 24.25284794625142
5 -48.2461088592754 -68.77607002061359
6 5.136346327288692 39.79336949617306
7 58.93099507890889 24.984406211326643
8 -8.192101491235817 -70.48306621907601
9 34.46803739207945 38.560203317878035
10 88.2669728859106 -1.0881641193762164
11 -16.22368854107623 -33.84366992382964
12 -51.51589639390688 -99.1704249564569
13 -80.8278709288793 22.247791961364285
EOF
